NAME: random-56-13551
TYPE: TSP
COMMENT: size=56 seed=13551
DIMENSION: 114
EDGE_WEIGHT_TYPE: EUC_2D
NODE_COORD_SECTION
+0 657 245
-0 657 245
+1 737 223
-1 605 25
+2 938 757
-2 628 329
+3 872 346
-3 409 634
+4 359 391
-4 675 677
+5 874 137
-5 952 131
+6 58 503
-6 387 111
+7 477 438
-7 702 910
+8 380 96
-8 132 574
+9 345 349
-9 466 721
+10 308 114
-10 119 560
+11 519 847
-11 955 905
+12 229 996
-12 809 272
+13 474 69
-13 472 358
+14 300 888
-14 990 13
+15 896 74
-15 87 243
+16 608 632
-16 245 645
+17 207 730
-17 303 896
+18 47 362
-18 449 943
+19 816 670
-19 782 880
+20 966 188
-20 474 188
+21 912 535
-21 383 594
+22 180 671
-22 68 723
+23 123 97
-23 882 305
+24 668 946
-24 435 381
+25 244 267
-25 797 76
+26 786 596
-26 696 538
+27 420 266
-27 497 701
+28 290 135
-28 736 928
+29 487 195
-29 173 763
+30 509 67
-30 414 150
+31 137 522
-31 540 633
+32 509 668
-32 749 223
+33 243 348
-33 101 33
+34 108 959
-34 189 125
+35 678 819
-35 846 878
+36 788 557
-36 753 991
+37 433 813
-37 236 117
+38 916 987
-38 232 904
+39 340 985
-39 974 772
+40 147 774
-40 38 432
+41 690 748
-41 207 216
+42 833 914
-42 807 447
+43 910 179
-43 630 440
+44 487 599
-44 309 454
+45 943 104
-45 458 614
+46 87 483
-46 73 183
+47 590 165
-47 602 536
+48 640 699
-48 801 73
+49 665 683
-49 538 527
+50 52 340
-50 446 545
+51 147 825
-51 587 946
+52 172 77
-52 398 331
+53 161 174
-53 749 302
+54 258 349
-54 961 449
+55 703 510
-55 379 275
+56 68 514
-56 165 807
PRECEDENCE_SECTION
+0 -0
+1 -1
+2 -2
+3 -3
+4 -4
+5 -5
+6 -6
+7 -7
+8 -8
+9 -9
+10 -10
+11 -11
+12 -12
+13 -13
+14 -14
+15 -15
+16 -16
+17 -17
+18 -18
+19 -19
+20 -20
+21 -21
+22 -22
+23 -23
+24 -24
+25 -25
+26 -26
+27 -27
+28 -28
+29 -29
+30 -30
+31 -31
+32 -32
+33 -33
+34 -34
+35 -35
+36 -36
+37 -37
+38 -38
+39 -39
+40 -40
+41 -41
+42 -42
+43 -43
+44 -44
+45 -45
+46 -46
+47 -47
+48 -48
+49 -49
+50 -50
+51 -51
+52 -52
+53 -53
+54 -54
+55 -55
+56 -56
EOF
